c 193_4_checker_6cl.cnf
c
c field = 193
c formula set type = 4_checker_6cl
c
p cnf 6 12
376 
378 
380 
382 
-374 
-386 
377 
379 
381 
383 
-375 
-387 
378 
380 
382 
386 
-376 
-388 
379 
381 
383 
387 
-377 
-389 
264 
294 
324 
354 
-234 
-414 
265 
295 
325 
355 
-235 
-415 
294 
324 
354 
414 
-264 
-444 
295 
325 
355 
415 
-265 
-445 
256 
288 
320 
352 
-224 
-416 
257 
289 
321 
353 
-225 
-417 
288 
320 
352 
416 
-256 
-448 
289 
321 
353 
417 
-257 
-449 
